
n_res = 8;
rcap = [102, 107, 103, 114, 690, 787, 652, 639];
rtype = [1, 1, 1, 1, 2, 2, 2, 2];
n_tasks = 50;
modes =  [{1, 2, 3}, {4, 5, 6}, {7, 8, 9}, {10, 11, 12}, {13, 14, 15}, {16, 17, 18}, {19, 20, 21}, {22, 23, 24}, {25, 26, 27}, {28, 29, 30}, {31, 32, 33}, {34, 35, 36}, {37, 38, 39}, {40, 41, 42}, {43, 44, 45}, {46, 47, 48}, {49, 50, 51}, {52, 53, 54}, {55, 56, 57}, {58, 59, 60}, {61, 62, 63}, {64, 65, 66}, {67, 68, 69}, {70, 71, 72}, {73, 74, 75}, {76, 77, 78}, {79, 80, 81}, {82, 83, 84}, {85, 86, 87}, {88, 89, 90}, {91, 92, 93}, {94, 95, 96}, {97, 98, 99}, {100, 101, 102}, {103, 104, 105}, {106, 107, 108}, {109, 110, 111}, {112, 113, 114}, {115, 116, 117}, {118, 119, 120}, {121, 122, 123}, {124, 125, 126}, {127, 128, 129}, {130, 131, 132}, {133, 134, 135}, {136, 137, 138}, {139, 140, 141}, {142, 143, 144}, {145, 146, 147}, {148, 149, 150}];
succ =  [{49, 47, 35, 34, 32, 31, 26, 22, 21, 20}, {46, 45, 34, 3}, {48, 47, 44, 35, 33, 30, 29, 28, 27, 26, 24}, {49, 48, 46, 43, 41, 38, 31, 25, 22}, {49, 47, 46, 44, 42, 32, 27, 25, 24}, {47, 46, 45, 43, 41, 38, 37, 31, 22}, {50, 43, 41, 39, 38, 31, 29, 26, 25}, {47, 45, 43, 41, 37, 30, 29, 28, 27}, {47, 46, 34, 32, 28, 26, 24}, {48, 44, 42, 41, 39, 38, 36, 25}, {45, 43, 42, 41, 39, 32, 28, 26}, {49, 48, 46, 45, 43, 41, 40, 39, 38, 37, 36}, {47, 46, 45, 44, 37, 36, 24}, {50, 44, 42, 41, 39, 37, 36, 30}, {45, 39, 38, 29, 26}, {46, 36, 28, 24}, {45, 42, 39, 38, 37, 36, 28}, {44, 41, 40, 38, 37, 36, 29}, {50, 44, 40, 39, 37, 36, 30}, {43, 42, 41, 37, 36, 28}, {48, 44, 42, 39, 38, 33}, {44, 40, 29, 27}, {49, 44, 39, 37, 36}, {43, 41, 39, 38}, {45, 37, 28}, {40, 37, 36}, {39, 36}, {40}, {42}, {38}, {36}, {38}, {43}, {37}, {41}, {}, {}, {}, {}, {}, {}, {}, {}, {}, {}, {}, {}, {}, {}, {}];
n_opt = 150;
dur = [6, 13, 16, 19, 20, 25, 2, 14, 29, 14, 20, 24, 7, 21, 30, 2, 6, 30, 20, 25, 27, 14, 15, 19, 13, 20, 22, 9, 17, 18, 3, 23, 29, 2, 3, 17, 20, 23, 29, 21, 24, 29, 5, 8, 15, 12, 15, 24, 14, 18, 26, 16, 21, 27, 8, 9, 13, 8, 9, 26, 1, 9, 25, 1, 8, 24, 11, 25, 29, 4, 23, 30, 1, 12, 19, 6, 8, 29, 7, 11, 17, 1, 3, 18, 5, 10, 16, 24, 25, 30, 18, 27, 28, 1, 7, 24, 3, 5, 14, 21, 28, 30, 10, 18, 23, 9, 20, 26, 14, 15, 28, 13, 17, 21, 12, 13, 15, 1, 3, 9, 4, 17, 25, 1, 5, 25, 23, 25, 26, 22, 29, 30, 4, 10, 24, 2, 3, 28, 21, 23, 28, 10, 14, 25, 12, 15, 25, 14, 15, 18];
rreq = [|8, 6, 4, 16, 13, 10, 20, 17, 11, 20, 14, 5, 25, 23, 14, 24, 22, 18, 30, 21, 15, 12, 7, 4, 26, 22, 17, 5, 5, 2, 10, 8, 6, 27, 25, 23, 9, 8, 7, 16, 13, 11, 25, 17, 11, 2, 1, 1, 22, 22, 22, 25, 24, 20, 14, 13, 10, 11, 8, 7, 20, 19, 19, 24, 18, 10, 3, 2, 2, 13, 13, 12, 16, 13, 5, 28, 19, 6, 14, 9, 6, 22, 20, 11, 28, 28, 28, 19, 19, 15, 13, 11, 11, 25, 22, 20, 16, 9, 2, 28, 27, 25, 3, 1, 1, 16, 11, 10, 17, 17, 16, 26, 14, 8, 22, 19, 16, 9, 6, 2, 10, 8, 8, 27, 20, 14, 20, 18, 18, 5, 2, 2, 26, 19, 16, 14, 12, 9, 20, 15, 12, 1, 1, 1, 24, 19, 17, 11, 11, 9
 |25, 22, 21, 11, 11, 8, 25, 24, 22, 22, 16, 14, 12, 11, 11, 16, 16, 16, 19, 16, 15, 10, 8, 5, 27, 23, 23, 19, 13, 10, 24, 22, 22, 24, 20, 18, 9, 9, 7, 8, 4, 3, 15, 12, 4, 18, 16, 14, 8, 8, 8, 21, 19, 15, 21, 15, 14, 26, 19, 12, 22, 20, 20, 22, 19, 18, 30, 24, 24, 24, 12, 4, 14, 12, 6, 8, 5, 4, 15, 14, 14, 6, 6, 6, 9, 6, 3, 26, 24, 23, 17, 17, 17, 28, 17, 13, 7, 7, 3, 27, 20, 6, 16, 12, 3, 30, 22, 15, 5, 4, 1, 21, 20, 17, 23, 20, 18, 23, 23, 23, 18, 10, 10, 22, 19, 19, 16, 11, 5, 12, 9, 5, 12, 10, 6, 22, 15, 3, 29, 17, 14, 17, 14, 14, 27, 26, 26, 17, 15, 15
 |14, 14, 14, 15, 13, 13, 28, 26, 22, 11, 11, 11, 19, 17, 17, 13, 11, 10, 21, 17, 8, 14, 10, 9, 14, 10, 6, 21, 20, 17, 28, 27, 27, 17, 12, 10, 23, 20, 17, 13, 10, 10, 6, 6, 6, 25, 13, 10, 19, 10, 7, 21, 9, 6, 26, 16, 10, 13, 10, 4, 28, 26, 26, 28, 26, 23, 9, 7, 4, 21, 19, 19, 27, 21, 14, 19, 19, 19, 13, 11, 7, 23, 23, 17, 27, 27, 25, 5, 4, 2, 9, 8, 5, 22, 18, 18, 25, 24, 23, 28, 27, 27, 17, 11, 11, 10, 7, 6, 28, 23, 22, 16, 14, 13, 21, 18, 14, 19, 19, 16, 28, 22, 18, 22, 21, 18, 28, 18, 15, 25, 18, 14, 25, 21, 12, 2, 2, 2, 24, 17, 17, 28, 24, 22, 27, 24, 14, 11, 7, 5
 |20, 15, 12, 19, 17, 16, 23, 22, 22, 9, 8, 7, 29, 22, 16, 25, 22, 16, 24, 12, 2, 13, 12, 9, 28, 27, 25, 6, 6, 5, 26, 11, 9, 20, 12, 12, 19, 18, 14, 28, 25, 23, 17, 12, 11, 21, 18, 8, 10, 9, 8, 13, 9, 6, 29, 25, 25, 20, 13, 7, 15, 15, 14, 14, 7, 2, 12, 11, 11, 23, 22, 21, 19, 17, 14, 18, 13, 10, 11, 7, 6, 28, 25, 24, 22, 16, 7, 12, 11, 9, 17, 13, 13, 20, 20, 20, 21, 14, 11, 30, 18, 18, 13, 11, 8, 13, 8, 3, 30, 30, 30, 11, 9, 8, 20, 18, 13, 24, 19, 9, 8, 8, 8, 17, 10, 7, 19, 17, 16, 9, 8, 7, 15, 14, 11, 19, 11, 5, 9, 7, 1, 21, 17, 16, 15, 13, 12, 22, 21, 21
 |20, 19, 18, 21, 20, 17, 27, 26, 26, 16, 9, 4, 25, 24, 16, 17, 13, 12, 22, 10, 7, 20, 17, 10, 22, 10, 6, 24, 20, 19, 18, 14, 10, 16, 15, 15, 10, 9, 7, 20, 15, 12, 20, 20, 19, 21, 16, 14, 10, 9, 7, 6, 5, 4, 19, 18, 17, 9, 7, 7, 17, 11, 9, 13, 11, 11, 17, 12, 7, 20, 15, 13, 22, 21, 13, 11, 8, 7, 14, 14, 14, 20, 17, 16, 12, 10, 6, 17, 15, 15, 27, 26, 26, 13, 6, 3, 30, 25, 20, 17, 14, 12, 28, 28, 28, 22, 15, 11, 14, 5, 5, 15, 10, 5, 16, 15, 10, 21, 19, 4, 21, 16, 4, 25, 17, 14, 23, 21, 14, 18, 18, 13, 21, 18, 7, 25, 14, 9, 25, 25, 25, 20, 13, 13, 10, 8, 8, 26, 21, 17
 |8, 6, 6, 23, 18, 18, 23, 22, 21, 6, 4, 3, 29, 25, 23, 18, 17, 14, 14, 9, 3, 28, 22, 21, 29, 29, 29, 28, 19, 14, 20, 16, 11, 21, 18, 13, 24, 15, 11, 21, 16, 8, 27, 26, 24, 23, 17, 5, 13, 8, 5, 12, 12, 9, 18, 18, 17, 27, 26, 26, 27, 17, 11, 10, 10, 10, 21, 13, 12, 3, 3, 2, 28, 27, 25, 24, 17, 9, 26, 22, 15, 22, 20, 20, 28, 24, 23, 22, 17, 11, 21, 16, 11, 15, 12, 10, 23, 21, 18, 27, 24, 19, 16, 14, 12, 20, 15, 11, 18, 15, 10, 28, 26, 26, 18, 15, 6, 17, 15, 15, 17, 13, 8, 28, 26, 24, 15, 11, 9, 20, 20, 20, 13, 13, 11, 16, 9, 8, 26, 20, 15, 25, 17, 14, 18, 17, 12, 29, 28, 27
 |11, 7, 2, 25, 23, 23, 23, 21, 18, 27, 27, 26, 6, 6, 6, 22, 17, 16, 24, 23, 20, 22, 14, 14, 22, 16, 12, 16, 11, 7, 14, 11, 8, 23, 12, 8, 23, 14, 7, 9, 5, 4, 12, 12, 12, 3, 2, 2, 22, 16, 10, 19, 15, 15, 10, 10, 2, 15, 9, 7, 29, 29, 29, 28, 25, 20, 13, 9, 9, 6, 6, 4, 23, 14, 8, 27, 15, 9, 27, 26, 25, 6, 6, 4, 23, 20, 17, 6, 3, 3, 26, 11, 5, 17, 11, 10, 16, 9, 6, 17, 14, 9, 8, 5, 5, 13, 12, 10, 20, 19, 18, 17, 10, 9, 26, 20, 19, 27, 26, 24, 16, 16, 14, 20, 15, 13, 28, 26, 24, 23, 21, 18, 4, 3, 2, 7, 5, 5, 20, 18, 15, 27, 21, 8, 19, 15, 11, 2, 2, 2
 |25, 18, 6, 22, 14, 11, 24, 13, 7, 5, 5, 2, 16, 15, 15, 26, 21, 20, 27, 26, 25, 8, 6, 6, 16, 11, 9, 25, 10, 4, 21, 14, 13, 21, 18, 8, 14, 7, 4, 27, 16, 13, 16, 10, 8, 24, 17, 10, 27, 26, 26, 8, 8, 7, 16, 16, 15, 6, 4, 2, 22, 17, 15, 10, 10, 8, 16, 15, 13, 25, 19, 17, 17, 17, 17, 10, 9, 8, 29, 28, 28, 22, 15, 8, 29, 27, 24, 17, 8, 7, 14, 14, 14, 4, 4, 4, 5, 5, 5, 7, 7, 6, 18, 18, 18, 13, 12, 6, 11, 6, 6, 24, 17, 12, 28, 18, 12, 30, 27, 24, 13, 13, 12, 21, 13, 3, 25, 22, 18, 24, 24, 20, 9, 9, 9, 6, 6, 6, 3, 2, 1, 5, 5, 5, 24, 20, 19, 14, 11, 7|];